Problem:    
Rows:       256
Columns:    89 (72 integer, 72 binary)
Non-zeros:  960
Status:     INTEGER OPTIMAL
Objective:  value = 17.898758 (MINimum)

   No.   Row name        Activity     Lower bound   Upper bound
------ ------------    ------------- ------------- -------------
     1 r.5                    1017.9             0               
     2 r.6                  -996.029      -998.646               
     3 r.7                   17.8988             0               
     4 r.8                   4.65235      -992.338               
     5 r.9                   17.8988             0               
     6 r.10                 -996.966      -998.387               
     7 r.11                   1017.9             0               
     8 r.12                 -990.382      -991.803               
     9 r.13                   1017.9             0               
    10 r.14                 -983.357       -998.54               
    11 r.15                  17.8988             0               
    12 r.16                  16.6431      -988.868               
    13 r.17                   1017.9             0               
    14 r.18                 -995.348      -999.319               
    15 r.19                  17.8988             0               
    16 r.20                  15.1826      -992.722               
    17 r.21                   1017.9             0               
    18 r.22                 -997.382      -998.803               
    19 r.23                  17.8988             0               
    20 r.24                  4.65235      -992.613               
    21 r.25                   1017.9             0               
    22 r.26                 -999.612      -999.612               
    23 r.27                  17.8988             0               
    24 r.28                  2.31723      -995.555               
    25 r.29                   1017.9             0               
    26 r.30                 -984.817       -989.47               
    27 r.31                  17.8988             0               
    28 r.32                  17.8988      -968.935               
    29 r.33                   1017.9             0               
    30 r.34                 -982.101      -998.744               
    31 r.35                  17.8988             0               
    32 r.36                  17.8988      -994.927               
    33 r.37                        1             1             = 
    34 r.38                        1             1             = 
    35 r.39                        1             1             = 
    36 r.40                        1             1             = 
    37 r.41                        1             1             = 
    38 r.42                        1             1             = 
    39 r.43                        1             1             = 
    40 r.44                        1             1             = 
    41 r.45                     1001             2               
    42 r.46                    -1001         -1001               
    43 r.47                  999.062      -998.387               
    44 r.48                     1001             2               
    45 r.49                    -1001         -1001               
    46 r.50                  2004.97      -991.803               
    47 r.51                        2             2               
    48 r.52                       -2         -1001               
    49 r.53                 -987.328       -998.54               
    50 r.54                     1000             2               
    51 r.55                    -1000         -1001               
    52 r.56                  2011.99      -988.868               
    53 r.57                        2             2               
    54 r.58                       -2         -1001               
    55 r.59                 -999.319      -999.319               
    56 r.60                     1000             2               
    57 r.61                    -1000         -1001               
    58 r.62                  2010.53      -992.722               
    59 r.63                        2             2               
    60 r.64                       -2         -1001               
    61 r.65                 -1.35365      -998.803               
    62 r.66                     1000             2               
    63 r.67                    -1000         -1001               
    64 r.68                     2000      -992.613               
    65 r.69                 -997.449      -998.646               
    66 r.70                  3.23194      -992.338               
    67 r.71                 -997.449      -998.646               
    68 r.72                  3.23194      -992.338               
    69 r.73                 -988.789       -989.47               
    70 r.74                  13.9274      -968.935               
    71 r.75                  -989.47       -989.47               
    72 r.76                  13.2464      -968.935               
    73 r.77                        2             2               
    74 r.78                       -2         -1001               
    75 r.79                 -986.073      -998.744               
    76 r.80                     1000             2               
    77 r.81                    -1000         -1001               
    78 r.82                  2013.25      -994.927               
    79 r.83                     1001             2               
    80 r.84                    -1001         -1001               
    81 r.85                  3002.95       1.35365               
    82 r.86                     1001             2               
    83 r.87                    -1001         -1001               
    84 r.88                  1993.24       7.66196               
    85 r.89                     1001             2               
    86 r.90                    -1001         -1001               
    87 r.91                  2015.62       -998.54               
    88 r.92                     1001             2               
    89 r.93                    -1001         -1001               
    90 r.94                  2005.23      -988.868               
    91 r.95                     1001             2               
    92 r.96                    -1001         -1001               
    93 r.97                  3003.63      -999.319               
    94 r.98                     1001             2               
    95 r.99                    -1001         -1001               
    96 r.100                 2003.77      -992.722               
    97 r.101                    1001             2               
    98 r.102                   -1001         -1001               
    99 r.103                  3001.6      -998.803               
   100 r.104                    1001             2               
   101 r.105                   -1001         -1001               
   102 r.106                 1993.24      -992.613               
   103 r.107                -998.387      -998.387               
   104 r.108                -991.803      -991.803               
   105 r.109                -998.387      -998.387               
   106 r.110                -991.803      -991.803               
   107 r.111                    1001             2               
   108 r.112                   -1001         -1001               
   109 r.113                 2014.16       -989.47               
   110 r.114                    1001             2               
   111 r.115                   -1001         -1001               
   112 r.116                 2006.49      -968.935               
   113 r.117                 16.8799      -998.744               
   114 r.118                 1016.88      -994.927               
   115 r.119                -993.514      -998.744               
   116 r.120                 6.48583      -994.927               
   117 r.121                       2             2               
   118 r.122                      -2         -1001               
   119 r.123                 987.328       1.35365               
   120 r.124                    1000             2               
   121 r.125                   -1000         -1001               
   122 r.126                 1988.01       7.66196               
   123 r.127                    1001             2               
   124 r.128                   -1001         -1001               
   125 r.129                 1986.39        1.6134               
   126 r.130                    1001             2               
   127 r.131                   -1001         -1001               
   128 r.132                 1992.97       8.19746               
   129 r.133                -988.009       -998.54               
   130 r.134                 11.9907      -988.868               
   131 r.135                 -998.54       -998.54               
   132 r.136                 1.46048      -988.868               
   133 r.137                       2             2               
   134 r.138                      -2         -1001               
   135 r.139                -14.0253      -998.803               
   136 r.140                    1000             2               
   137 r.141                   -1000         -1001               
   138 r.142                 1988.01      -992.613               
   139 r.143                -984.777       -998.54               
   140 r.144                 15.2226      -988.868               
   141 r.145                -984.777       -998.54               
   142 r.146                 15.2226      -988.868               
   143 r.147                       2             2               
   144 r.148                      -2         -1001               
   145 r.149                -1.46048       -989.47               
   146 r.150                    1000             2               
   147 r.151                   -1000         -1001               
   148 r.152                 2001.26      -968.935               
   149 r.153                -998.744      -998.744               
   150 r.154                  1.2557      -994.927               
   151 r.155                -998.744      -998.744               
   152 r.156                  1.2557      -994.927               
   153 r.157                       2             2               
   154 r.158                      -2         -1001               
   155 r.159                 999.319       1.35365               
   156 r.160                    1000             2               
   157 r.161                   -1000         -1001               
   158 r.162                 1989.47       7.66196               
   159 r.163                    1001             2               
   160 r.164                   -1001         -1001               
   161 r.165                 998.381        1.6134               
   162 r.166                    1001             2               
   163 r.167                   -1001         -1001               
   164 r.168                 1994.44       8.19746               
   165 r.169                       2             2               
   166 r.170                      -2         -1001               
   167 r.171                -2.03464      -998.803               
   168 r.172                    1000             2               
   169 r.173                   -1000         -1001               
   170 r.174                 1989.47      -992.613               
   171 r.175                -996.768      -999.319               
   172 r.176                 13.7622      -992.722               
   173 r.177                -996.768      -999.319               
   174 r.178                 13.7622      -992.722               
   175 r.179                       2             2               
   176 r.180                      -2         -1001               
   177 r.181                 -989.47       -989.47               
   178 r.182                    1000             2               
   179 r.183                   -1000         -1001               
   180 r.184                 2002.72      -968.935               
   181 r.185                -986.754      -998.744               
   182 r.186                 13.2464      -994.927               
   183 r.187                -997.284      -998.744               
   184 r.188                 2.71618      -994.927               
   185 r.189                       2             2               
   186 r.190                      -2         -1001               
   187 r.191                 1.35365       1.35365               
   188 r.192                    1000             2               
   189 r.193                   -1000         -1001               
   190 r.194                    2000       7.66196               
   191 r.195                    1001             2               
   192 r.196                   -1001         -1001               
   193 r.197                 1000.42        1.6134               
   194 r.198                    1001             2               
   195 r.199                   -1001         -1001               
   196 r.200                 2004.97       8.19746               
   197 r.201                       2             2               
   198 r.202                      -2         -1001               
   199 r.203                 14.0253       1.46048               
   200 r.204                    1000             2               
   201 r.205                   -1000         -1001               
   202 r.206                 2011.99       11.1324               
   203 r.207                       2             2               
   204 r.208                      -2         -1001               
   205 r.209                 2.03464      0.680989               
   206 r.210                    1000             2               
   207 r.211                   -1000         -1001               
   208 r.212                 2010.53       7.27798               
   209 r.213                -998.803      -998.803               
   210 r.214                 3.23194      -992.613               
   211 r.215                -998.803      -998.803               
   212 r.216                 3.23194      -992.613               
   213 r.217                -987.435       -989.47               
   214 r.218                  15.281      -968.935               
   215 r.219                 -989.47       -989.47               
   216 r.220                 13.2464      -968.935               
   217 r.221                -984.719      -998.744               
   218 r.222                  15.281      -994.927               
   219 r.223                -986.754      -998.744               
   220 r.224                 13.2464      -994.927               
   221 r.225                    1001             2               
   222 r.226                   -1001         -1001               
   223 r.227                 1987.85        1.6134               
   224 r.228                    1001             2               
   225 r.229                   -1001         -1001               
   226 r.230                 1991.72       8.19746               
   227 r.231                       2             2               
   228 r.232                      -2         -1001               
   229 r.233                 1.46048       1.46048               
   230 r.234                    1000             2               
   231 r.235                   -1000         -1001               
   232 r.236                 1998.74       11.1324               
   233 r.237                       2             2               
   234 r.238                      -2         -1001               
   235 r.239                  989.47      0.680989               
   236 r.240                    1000             2               
   237 r.241                   -1000         -1001               
   238 r.242                 1997.28       7.27798               
   239 r.243                       2             2               
   240 r.244                      -2         -1001               
   241 r.245                -997.284      -998.744               
   242 r.246                    1000             2               
   243 r.247                   -1000         -1001               
   244 r.248                    2000      -994.927               
   245 r.249                       2             2               
   246 r.250                      -2         -1001               
   247 r.251                 986.073       1.35365               
   248 r.252                    1000             2               
   249 r.253                   -1000         -1001               
   250 r.254                 1986.75       7.66196               
   251 r.255                       2             2               
   252 r.256                      -2         -1001               
   253 r.257                 997.284       10.5302               
   254 r.258                    1000             2               
   255 r.259                   -1000         -1001               
   256 r.260                    2000       31.0646               

   No. Column name       Activity     Lower bound   Upper bound
------ ------------    ------------- ------------- -------------
     1 tt                    17.8988             0               
     2 s_1_1        *              1             0             1 
     3 t_1_1                 13.9274             0               
     4 s_1_7        *              1             0             1 
     5 s_2_1        *              0             0             1 
     6 t_2_1                 13.2464             0               
     7 s_2_7        *              0             0             1 
     8 s_1_2        *              0             0             1 
     9 t_1_2                 1016.88             0               
    10 s_1_8        *              1             0             1 
    11 s_2_2        *              1             0             1 
    12 t_2_2                 6.48583             0               
    13 s_2_8        *              0             0             1 
    14 s_1_3        *              1             0             1 
    15 t_1_3                  1.2557             0               
    16 s_2_3        *              0             0             1 
    17 t_2_3                  1.2557             0               
    18 s_1_4        *              1             0             1 
    19 t_1_4                 13.2464             0               
    20 s_2_4        *              0             0             1 
    21 t_2_4                 2.71618             0               
    22 s_1_5        *              1             0             1 
    23 t_1_5                  15.281             0               
    24 s_2_5        *              0             0             1 
    25 t_2_5                 13.2464             0               
    26 s_1_6        *              1             0             1 
    27 t_1_6                 16.4783             0               
    28 s_2_6        *              0             0             1 
    29 t_2_6                 16.4783             0               
    30 t_1_7                 2.71618             0               
    31 t_2_7                       0             0               
    32 t_1_8                       0             0               
    33 t_2_8                       0             0               
    34 r_1_1_2      *              1             0             1 
    35 u_1_1_2      *              0             0             1 
    36 r_2_1_2      *              1             0             1 
    37 u_2_1_2      *              0             0             1 
    38 r_1_1_3      *              0             0             1 
    39 u_1_1_3      *              1             0             1 
    40 r_2_1_3      *              1             0             1 
    41 u_2_1_3      *              0             0             1 
    42 r_1_1_4      *              0             0             1 
    43 u_1_1_4      *              1             0             1 
    44 r_2_1_4      *              1             0             1 
    45 u_2_1_4      *              0             0             1 
    46 r_1_1_5      *              0             0             1 
    47 u_1_1_5      *              0             0             1 
    48 r_2_1_5      *              1             0             1 
    49 u_2_1_5      *              0             0             1 
    50 r_1_1_8      *              0             0             1 
    51 u_1_1_8      *              1             0             1 
    52 r_2_1_8      *              1             0             1 
    53 u_2_1_8      *              0             0             1 
    54 r_1_2_3      *              1             0             1 
    55 u_1_2_3      *              1             0             1 
    56 r_2_2_3      *              1             0             1 
    57 u_2_2_3      *              0             0             1 
    58 r_1_2_4      *              1             0             1 
    59 u_1_2_4      *              0             0             1 
    60 r_2_2_4      *              1             0             1 
    61 u_2_2_4      *              0             0             1 
    62 r_1_2_5      *              1             0             1 
    63 u_1_2_5      *              0             0             1 
    64 r_2_2_5      *              1             0             1 
    65 u_2_2_5      *              0             0             1 
    66 r_1_2_7      *              1             0             1 
    67 u_1_2_7      *              1             0             1 
    68 r_2_2_7      *              1             0             1 
    69 u_2_2_7      *              0             0             1 
    70 r_1_3_5      *              0             0             1 
    71 u_1_3_5      *              0             0             1 
    72 r_2_3_5      *              1             0             1 
    73 u_2_3_5      *              0             0             1 
    74 r_1_3_7      *              0             0             1 
    75 u_1_3_7      *              0             0             1 
    76 r_2_3_7      *              1             0             1 
    77 u_2_3_7      *              0             0             1 
    78 r_1_4_5      *              0             0             1 
    79 u_1_4_5      *              0             0             1 
    80 r_2_4_5      *              1             0             1 
    81 u_2_4_5      *              0             0             1 
    82 r_1_4_7      *              0             0             1 
    83 u_1_4_7      *              1             0             1 
    84 r_2_4_7      *              1             0             1 
    85 u_2_4_7      *              0             0             1 
    86 r_1_7_8      *              0             0             1 
    87 u_1_7_8      *              1             0             1 
    88 r_2_7_8      *              1             0             1 
    89 u_2_7_8      *              0             0             1 

Integer feasibility conditions:

KKT.PE: max.abs.err = 4.55e-13 on row 93
        max.rel.err = 1.11e-16 on row 22
        High quality

KKT.PB: max.abs.err = 1.14e-13 on row 105
        max.rel.err = 1.14e-16 on row 105
        High quality

End of output
